========================================================== 
File name: C:\DEGR\assets\definitions\MSRCPSP_Gen\100_40_64_5_A.def
Creation date: Wed May 03 10:39:21 CEST 2023
Website: http://imopse.ii.pwr.edu.pl/ 
Reference: 
Myszkowski P. B., Skowronski M. E., Olech L., Oslizlo K., 
Hybrid Ant Colony Optimization in solving Multi-Skill Resource-Constrained Project Scheduling Problem, 
Soft Computing, DOI: DOI 10.1007/s00500-014-1455-x 
========================================================== 
General characteristics: 
Tasks: 100
Resources: 40
Precedence relations: 62
Number of skill types: 5
========================================================== 
ResourceID 	 Salary 	 Skills 
1	 	 	35.1	 	 Q4: 3 	 
2	 	 	84.8	 	 Q0: 2 	  Q4: 0 	  Q3: 0 	 
3	 	 	35.1	 	 Q2: 0 	  Q1: 3 	  Q4: 1 	 
4	 	 	69.2	 	 Q3: 0 	  Q4: 3 	  Q2: 1 	  Q1: 0 	 
5	 	 	78.6	 	 Q4: 1 	 
6	 	 	14.0	 	 Q4: 1 	 
7	 	 	57.1	 	 Q0: 0 	  Q1: 1 	 
8	 	 	52.6	 	 Q4: 0 	 
9	 	 	44.6	 	 Q2: 2 	 
10	 	 	85.8	 	 Q2: 2 	  Q0: 2 	  Q3: 0 	 
11	 	 	33.6	 	 Q1: 0 	  Q2: 3 	  Q3: 1 	 
12	 	 	55.5	 	 Q2: 2 	  Q4: 0 	  Q0: 1 	  Q3: 1 	 
13	 	 	51.0	 	 Q3: 0 	  Q2: 3 	  Q0: 1 	 
14	 	 	30.0	 	 Q2: 1 	  Q3: 1 	  Q1: 1 	 
15	 	 	83.6	 	 Q2: 2 	  Q4: 2 	  Q0: 2 	 
16	 	 	88.6	 	 Q4: 1 	  Q0: 3 	  Q2: 1 	  Q3: 2 	 
17	 	 	18.1	 	 Q3: 1 	  Q4: 0 	 
18	 	 	85.8	 	 Q2: 3 	  Q0: 0 	  Q3: 3 	  Q4: 2 	 
19	 	 	71.6	 	 Q2: 2 	  Q1: 1 	  Q3: 1 	  Q4: 0 	 
20	 	 	91.7	 	 Q2: 3 	  Q0: 1 	 
21	 	 	76.2	 	 Q3: 0 	  Q2: 3 	  Q4: 2 	 
22	 	 	37.8	 	 Q0: 1 	  Q3: 2 	 
23	 	 	68.9	 	 Q0: 1 	  Q1: 0 	  Q3: 3 	 
24	 	 	45.5	 	 Q4: 1 	 
25	 	 	46.6	 	 Q4: 1 	 
26	 	 	55.3	 	 Q3: 3 	  Q4: 3 	 
27	 	 	77.6	 	 Q0: 3 	  Q3: 1 	 
28	 	 	46.6	 	 Q1: 3 	  Q3: 3 	 
29	 	 	26.4	 	 Q1: 3 	  Q0: 0 	  Q2: 3 	  Q3: 3 	 
30	 	 	15.7	 	 Q3: 1 	 
31	 	 	44.1	 	 Q2: 0 	  Q0: 0 	  Q3: 3 	  Q4: 2 	 
32	 	 	77.5	 	 Q0: 3 	 
33	 	 	95.3	 	 Q1: 1 	  Q0: 0 	 
34	 	 	41.1	 	 Q2: 0 	  Q4: 3 	  Q3: 0 	 
35	 	 	61.2	 	 Q3: 1 	 
36	 	 	27.2	 	 Q1: 1 	  Q2: 1 	  Q4: 2 	 
37	 	 	41.1	 	 Q4: 3 	  Q2: 0 	  Q1: 2 	  Q3: 3 	 
38	 	 	18.9	 	 Q2: 3 	  Q4: 0 	  Q1: 0 	  Q0: 2 	 
39	 	 	10.5	 	 Q1: 1 	  Q3: 2 	 
40	 	 	82.6	 	 Q1: 1 	  Q4: 2 	 
========================================================== 
TaskID 	 Duration 	 Skill 	 Predecessor IDs 
1	12	Q0:	2
2	17	Q4:	0
3	33	Q1:	2
4	19	Q1:	0
5	30	Q0:	3
6	25	Q1:	0
7	36	Q3:	2
8	31	Q2:	0
9	37	Q1:	3
10	40	Q1:	1	9
11	29	Q2:	0
12	16	Q0:	1
13	27	Q0:	3	9
14	24	Q1:	2
15	12	Q1:	1	3
16	26	Q1:	1
17	34	Q2:	2	3
18	29	Q2:	1
19	30	Q0:	2
20	17	Q2:	0
21	12	Q2:	3
22	21	Q0:	0
23	11	Q0:	0
24	40	Q4:	3
25	40	Q4:	1
26	13	Q1:	3	22
27	18	Q1:	3
28	25	Q0:	3
29	39	Q2:	0	4
30	34	Q0:	1	7
31	13	Q3:	1
32	11	Q4:	1
33	17	Q2:	1	27
34	10	Q3:	3
35	12	Q1:	3
36	33	Q4:	3
37	11	Q4:	2
38	36	Q1:	0
39	35	Q4:	2	2
40	18	Q1:	0	4
41	13	Q1:	0	38
42	35	Q2:	1
43	19	Q3:	0	10
44	29	Q2:	1
45	31	Q0:	1
46	28	Q4:	2
47	31	Q0:	2	43
48	19	Q3:	0	46
49	19	Q2:	2
50	32	Q2:	2
51	32	Q0:	3	46
52	38	Q4:	1	18
53	14	Q1:	2	51
54	19	Q0:	1
55	14	Q3:	1	5
56	39	Q0:	1
57	29	Q4:	3
58	29	Q2:	0
59	20	Q3:	3	28	55
60	21	Q4:	0
61	16	Q0:	1	33
62	24	Q2:	1
63	18	Q4:	2
64	21	Q0:	1	53
65	12	Q1:	3
66	31	Q4:	0
67	37	Q3:	2	17
68	11	Q0:	1	8
69	26	Q1:	1	44
70	23	Q1:	0	62
71	36	Q0:	2	46
72	17	Q1:	3
73	14	Q4:	2
74	17	Q2:	3	55
75	25	Q2:	2	36
76	19	Q3:	2
77	32	Q4:	0
78	36	Q1:	1	15
79	9	Q2:	3	50
80	38	Q4:	2
81	9	Q4:	1	27	17
82	20	Q4:	0	57	38
83	19	Q0:	2	31
84	21	Q2:	2	67
85	24	Q4:	0
86	39	Q0:	3
87	34	Q3:	2	67	21
88	18	Q4:	1	80
89	20	Q4:	0	29	36	60	74	81
90	22	Q3:	2	26	77
91	37	Q1:	2	61	90
92	31	Q4:	1	81
93	30	Q4:	3	29	78	76	6
94	9	Q4:	3	88
95	9	Q1:	1	46
96	15	Q1:	3	36	6	65
97	20	Q4:	3
98	35	Q1:	2	91
99	22	Q1:	3	74	70
100	22	Q2:	3
========================================================== 